%%% static parameters %%%
timespan = 1;
Clients_N = [500];
Demand_W = [15];
Lt0 = [4];
Lt1 = [4];
SS_ = [0.85];
DS_D = [20];
K = [200];
MA = [500];
HC = [0.05];
%%% dynamic parameters %%%
lost_ratio_sales_ret_th = 0.0007789401385747333;
lost_ratio_sales_ret_w = 18;
lost_ratio_sales_dis_th = 1.097512977967452e-06;
lost_ratio_sales_dis_w = 26;
lost_ratio_sales_fac_th = 0.00010012794088970523;
lost_ratio_sales_fac_w = 13;
stock_customer_MA_mean_relative_th = 0.08815691357501454;
stock_customer_MA_mean_relative_w = 71;
stock_distributor_MA_mean_relative_th = 0.3873467613143493;
stock_distributor_MA_mean_relative_w = 78;
stock_retailer_MA_mean_relative_th = 0.03250041074660914;
stock_retailer_MA_mean_relative_w = 69;
stock_factory_MA_mean_relative_th = 0.5551854088529031;
stock_factory_MA_mean_relative_w = 16;
